50

94 17 294
92 19 362
89 7 318
88 1 341
88 1 287
87 15 326
86 3 310
84 7 305
82 8 340
82 19 394
81 9 286
79 9 277
77 14 231
77 21 236
77 12 377
76 3 392
73 11 336
72 16 219
70 17 389
69 11 339
68 17 382
68 7 273
65 5 288
63 16 316
63 8 228
61 7 215
59 10 265
58 13 203
57 9 268
55 9 384
54 6 287
52 11 353
52 3 216
52 10 211
51 8 318
48 3 253
46 13 380
43 10 223
40 8 291
38 4 226
37 12 227
37 10 361
36 9 392
35 4 349
35 4 339
35 1 330
34 7 197
34 7 140
34 1 238
33 1 248
